2 20
221 190 
0 14 100 91 18 30 56 1
1 47 24 55 59 78 66 2
2 52 18 53 97 38 15 1
3 80 95 65 42 10 47 2
4 58 72 34 23 67 38 1
5 97 58 6 12 90 63 2
6 82 13 38 40 78 31 2
7 76 96 16 34 63 74 1
8 99 81 51 48 100 10 2
9 7 50 67 97 98 71 2
10 87 16 80 62 30 44 2
11 35 23 100 34 44 39 1
12 19 28 80 79 94 49 2
13 58 100 99 47 4 81 2
14 35 73 8 7 84 48 1
15 72 17 25 39 29 15 1
16 98 53 43 40 50 22 2
17 42 92 79 87 83 78 1
18 23 93 59 16 27 29 2
19 74 6 62 73 10 74 1
